[VALIDATOR STDOUT]
Checking plan: /home/jfan5/Safety-gen/runs/benchmark/optic/delivery_20260201_172908/delivery/optic_results/delivery_size3_packages1_seed3001.plan
Plan executed successfully - checking goal
Plan valid
Final value: 6 

Successful plans:
Value: 6
 /home/jfan5/Safety-gen/runs/benchmark/optic/delivery_20260201_172908/delivery/optic_results/delivery_size3_packages1_seed3001.plan 6
